22
5 9
5 8
5 10
5 16
5 7
5 14
9 15
9 17
9 16
9 3
9 1
14 17
14 0
14 4
14 2
14 13
17 20
17 0
17 12
17 4
3 15
3 11
3 10
3 6
3 19
15 20
15 7
15 13
15 12
10 11
10 1
10 4
10 19
11 18
11 8
11 21
11 12
2 18
2 6
2 7
2 21
2 0
18 19
18 6
18 21
18 8
20 1
20 12
20 13
20 4
0 16
0 19
0 13
6 21
6 1
6 13
21 19
21 8
4 12
4 16
12 13
19 7
16 1
16 8
1 7
8 7
